SystemName Transport con otros parametros de red # Descriptive name of the system
SystemLabel scat # Short name for naming files
#--BASIS SET
PAO.BasisType split
PAO.SplitNorm 0.15
# PAO.BasisSize DZP #This flag sets the same basis set for all atoms
%block PAO.BasisSizes
Au DZP
C DZP
H DZP
S DZP
O DZP
N DZP
%endblock PAO.BasisSizes
PAO.EnergyShift 0.01 eV
# K-POINTS
%block kgrid_Monkhorst_Pack
2 0 0 0.0
0 2 0 0.0
0 0 1 0.0
%endblock kgrid_Monkhorst_Pack


LatticeConstant 1.0 Ang
%block LatticeVectors
14.4250000 0.00000000 0.00000000
 7.21250000 12.4924164 0.00000000
 0.00000000 0.00000000 38.6148000
%endblock LatticeVectors


NumberOfAtoms 240
AtomicCoordinatesFormat Ang
%block AtomicCoordinatesAndAtomicSpecies
  1.46340000  0.82330000  0.00000000 1 #   1: Au
  4.34840000  0.82330000  0.00000000 1 #   2: Au
  7.23340000  0.82330000  0.00000000 1 #   3: Au
 10.11840000  0.82330000  0.00000000 1 #   4: Au
 13.00340000  0.82330000  0.00000000 1 #   5: Au
  2.90590000  3.32180000  0.00000000 1 #   6: Au
  5.79090000  3.32180000  0.00000000 1 #   7: Au
  8.67590000  3.32180000  0.00000000 1 #   8: Au
 11.56090000  3.32180000  0.00000000 1 #   9: Au
 14.44590000  3.32180000  0.00000000 1 #  10: Au
  4.34840000  5.82030000  0.00000000 1 #  11: Au
  7.23340000  5.82030000  0.00000000 1 #  12: Au
 10.11840000  5.82030000  0.00000000 1 #  13: Au
 13.00340000  5.82030000  0.00000000 1 #  14: Au
 15.88840000  5.82030000  0.00000000 1 #  15: Au
  5.79090000  8.31880000  0.00000000 1 #  16: Au
  8.67590000  8.31880000  0.00000000 1 #  17: Au
 11.56090000  8.31880000  0.00000000 1 #  18: Au
 14.44590000  8.31880000  0.00000000 1 #  19: Au
 17.33090000  8.31880000  0.00000000 1 #  20: Au
  7.23340000 10.81730000  0.00000000 1 #  21: Au
 10.11840000 10.81730000  0.00000000 1 #  22: Au
 13.00340000 10.81730000  0.00000000 1 #  23: Au
 15.88840000 10.81730000  0.00000000 1 #  24: Au
 18.77340000 10.81730000  0.00000000 1 #  25: Au
  0.02090000  1.65620000  2.35560000 1 #  26: Au
  2.90590000  1.65620000  2.35560000 1 #  27: Au
  5.79090000  1.65620000  2.35560000 1 #  28: Au
  8.67590000  1.65620000  2.35560000 1 #  29: Au
 11.56090000  1.65620000  2.35560000 1 #  30: Au
  1.46340000  4.15460000  2.35560000 1 #  31: Au
  4.34840000  4.15460000  2.35560000 1 #  32: Au
  7.23340000  4.15460000  2.35560000 1 #  33: Au
 10.11840000  4.15460000  2.35560000 1 #  34: Au
 13.00340000  4.15460000  2.35560000 1 #  35: Au
  2.90590000  6.65310000  2.35560000 1 #  36: Au
  5.79090000  6.65310000  2.35560000 1 #  37: Au
  8.67590000  6.65310000  2.35560000 1 #  38: Au
 11.56090000  6.65310000  2.35560000 1 #  39: Au
 14.44590000  6.65310000  2.35560000 1 #  40: Au
  4.34840000  9.15160000  2.35560000 1 #  41: Au
  7.23340000  9.15160000  2.35560000 1 #  42: Au
 10.11840000  9.15160000  2.35560000 1 #  43: Au
 13.00340000  9.15160000  2.35560000 1 #  44: Au
 15.88840000  9.15160000  2.35560000 1 #  45: Au
  5.79090000 11.65010000  2.35560000 1 #  46: Au
  8.67590000 11.65010000  2.35560000 1 #  47: Au
 11.56090000 11.65010000  2.35560000 1 #  48: Au
 14.44590000 11.65010000  2.35560000 1 #  49: Au
 17.33090000 11.65010000  2.35560000 1 #  50: Au
  0.02090000 -0.00950000  4.71110000 1 #  51: Au
  2.90590000 -0.00950000  4.71110000 1 #  52: Au
  5.79090000 -0.00950000  4.71110000 1 #  53: Au
  8.67590000 -0.00950000  4.71110000 1 #  54: Au
 11.56090000 -0.00950000  4.71110000 1 #  55: Au
  1.46340000  2.48900000  4.71110000 1 #  56: Au
  4.34840000  2.48900000  4.71110000 1 #  57: Au
  7.23340000  2.48900000  4.71110000 1 #  58: Au
 10.11840000  2.48900000  4.71110000 1 #  59: Au
 13.00340000  2.48900000  4.71110000 1 #  60: Au
  2.90590000  4.98750000  4.71110000 1 #  61: Au
  5.79090000  4.98750000  4.71110000 1 #  62: Au
  8.67590000  4.98750000  4.71110000 1 #  63: Au
 11.56090000  4.98750000  4.71110000 1 #  64: Au
 14.44590000  4.98750000  4.71110000 1 #  65: Au
  4.34840000  7.48590000  4.71110000 1 #  66: Au
  7.23340000  7.48590000  4.71110000 1 #  67: Au
 10.11840000  7.48590000  4.71110000 1 #  68: Au
 13.00340000  7.48590000  4.71110000 1 #  69: Au
 15.88840000  7.48590000  4.71110000 1 #  70: Au
  5.79090000  9.98440000  4.71110000 1 #  71: Au
  8.67590000  9.98440000  4.71110000 1 #  72: Au
 11.56090000  9.98440000  4.71110000 1 #  73: Au
 14.44590000  9.98440000  4.71110000 1 #  74: Au
 17.33090000  9.98440000  4.71110000 1 #  75: Au
  1.46340000  0.82330000  7.06670000 1 #  76: Au
  4.34840000  0.82330000  7.06670000 1 #  77: Au
  7.23340000  0.82330000  7.06670000 1 #  78: Au
 10.11840000  0.82330000  7.06670000 1 #  79: Au
 13.00340000  0.82330000  7.06670000 1 #  80: Au
  2.90590000  3.32180000  7.06670000 1 #  81: Au
  5.79090000  3.32180000  7.06670000 1 #  82: Au
  8.67590000  3.32180000  7.06670000 1 #  83: Au
 11.56090000  3.32180000  7.06670000 1 #  84: Au
 14.44590000  3.32180000  7.06670000 1 #  85: Au
  4.34840000  5.82030000  7.06670000 1 #  86: Au
  7.23340000  5.82030000  7.06670000 1 #  87: Au
 10.11840000  5.82030000  7.06670000 1 #  88: Au
 13.00340000  5.82030000  7.06670000 1 #  89: Au
 15.88840000  5.82030000  7.06670000 1 #  90: Au
  5.79090000  8.31880000  7.06670000 1 #  91: Au
  8.67590000  8.31880000  7.06670000 1 #  92: Au
 11.56090000  8.31880000  7.06670000 1 #  93: Au
 14.44590000  8.31880000  7.06670000 1 #  94: Au
 17.33090000  8.31880000  7.06670000 1 #  95: Au
  7.23340000 10.81730000  7.06670000 1 #  96: Au
 10.11840000 10.81730000  7.06670000 1 #  97: Au
 13.00340000 10.81730000  7.06670000 1 #  98: Au
 15.88840000 10.81730000  7.06670000 1 #  99: Au
 18.77340000 10.81730000  7.06670000 1 # 100: Au
  7.23340000  4.15460000  9.42230000 1 # 101: Au
 10.11840000  4.15460000  9.42230000 1 # 102: Au
  8.67590000  6.65310000  9.42230000 1 # 103: Au
  8.67590000  4.98750000 11.77790000 1 # 104: Au
  9.04618400  5.92077500 20.32682300 2 # 105: N
  9.23901600  5.89887400 22.50694600 2 # 106: N
  7.43233600  4.34379600 17.39218200 2 # 107: N
 10.88431700  4.06885000 17.05086800 2 # 108: N
  6.20138000  4.40419900 19.44830300 3 # 109: C
  7.36513100  3.88775700 18.63553400 3 # 110: C
  6.52082000  5.81617600 19.96928300 3 # 111: C
  7.75909800  5.88821600 20.82136800 3 # 112: C
  7.88345700  5.88405900 22.17137200 3 # 113: C
  9.89947100  5.91958600 21.36748200 3 # 114: C
  8.50567300  3.99170300 16.48601100 3 # 115: C
  8.12788400  4.44412700 15.07527200 3 # 116: C
  9.73841900  4.74273800 17.00412900 3 # 117: C
 12.12290200  4.68281100 17.54383700 3 # 118: C
  8.17543200  3.10031500 19.12234400 4 # 119: O
  9.63840800  5.90368800 17.41237400 4 # 120: O
  9.44540400  4.24520100 13.85372100 5 # 121: S
  7.24526000  3.87109600 14.78938700 6 # 122: H
  7.83322400  5.49545200 15.13736800 6 # 123: H
  6.76867600  5.02841100 17.07027500 6 # 124: H
 10.96581600  5.95692700 21.26174600 6 # 125: H
  9.29025700  5.95112500 19.33155600 6 # 126: H
  7.12060000  5.82703200 22.92214800 6 # 127: H
  5.32610900  4.44199300 18.83289900 6 # 128: H
  5.67599100  6.15588100 20.56996200 6 # 129: H
  6.60538100  6.51207000 19.12881000 6 # 130: H
 10.90450300  3.13804700 16.65652700 6 # 131: H
 11.98659400  4.99644800 18.55773400 6 # 132: H
  8.68075900  2.91795600 16.51577800 6 # 133: H
  6.02651500  3.74987900 20.27595800 6 # 134: H
 12.91868000  3.96907500 17.49525500 6 # 135: H
 12.36660100  5.53040900 16.93788400 6 # 136: H
 10.07713400  5.88970600 24.48131700 1 # 137: Au
 10.07713400  4.22400600 26.83690000 1 # 138: Au
  8.63463400  6.72250600 26.83690000 1 # 139: Au
 11.51963400  6.72250600 26.83690000 1 # 140: Au
 -0.02026600  0.05990600 29.19250000 1 # 141: Au
  2.86473400  0.05990600 29.19250000 1 # 142: Au
  5.74963400  0.05990600 29.19250000 1 # 143: Au
  8.63463400  0.05990600 29.19250000 1 # 144: Au
 11.51963400  0.05990600 29.19250000 1 # 145: Au
  1.42223400  2.55840600 29.19250000 1 # 146: Au
  4.30723400  2.55840600 29.19250000 1 # 147: Au
  7.19213400  2.55840600 29.19250000 1 # 148: Au
 10.07713400  2.55840600 29.19250000 1 # 149: Au
 12.96213400  2.55840600 29.19250000 1 # 150: Au
  2.86473400  5.05680600 29.19250000 1 # 151: Au
  5.74963400  5.05680600 29.19250000 1 # 152: Au
  8.63463400  5.05680600 29.19250000 1 # 153: Au
 11.51963400  5.05680600 29.19250000 1 # 154: Au
 14.40463400  5.05680600 29.19250000 1 # 155: Au
  4.30723400  7.55530600 29.19250000 1 # 156: Au
  7.19213400  7.55530600 29.19250000 1 # 157: Au
 10.07713400  7.55530600 29.19250000 1 # 158: Au
 12.96213400  7.55530600 29.19250000 1 # 159: Au
 15.84713400  7.55530600 29.19250000 1 # 160: Au
  5.74963400 10.05380600 29.19250000 1 # 161: Au
  8.63463400 10.05380600 29.19250000 1 # 162: Au
 11.51963400 10.05380600 29.19250000 1 # 163: Au
 14.40463400 10.05380600 29.19250000 1 # 164: Au
 17.28963400 10.05380600 29.19250000 1 # 165: Au
  1.42223400  0.89270600 31.54810000 1 # 166: Au
  4.30723400  0.89270600 31.54810000 1 # 167: Au
  7.19213400  0.89270600 31.54810000 1 # 168: Au
 10.07713400  0.89270600 31.54810000 1 # 169: Au
 12.96213400  0.89270600 31.54810000 1 # 170: Au
  2.86473400  3.39120600 31.54810000 1 # 171: Au
  5.74963400  3.39120600 31.54810000 1 # 172: Au
  8.63463400  3.39120600 31.54810000 1 # 173: Au
 11.51963400  3.39120600 31.54810000 1 # 174: Au
 14.40463400  3.39120600 31.54810000 1 # 175: Au
  4.30723400  5.88970600 31.54810000 1 # 176: Au
  7.19213400  5.88970600 31.54810000 1 # 177: Au
 10.07713400  5.88970600 31.54810000 1 # 178: Au
 12.96213400  5.88970600 31.54810000 1 # 179: Au
 15.84713400  5.88970600 31.54810000 1 # 180: Au
  5.74963400  8.38820600 31.54810000 1 # 181: Au
  8.63463400  8.38820600 31.54810000 1 # 182: Au
 11.51963400  8.38820600 31.54810000 1 # 183: Au
 14.40463400  8.38820600 31.54810000 1 # 184: Au
 17.28963400  8.38820600 31.54810000 1 # 185: Au
  7.19213400 10.88660600 31.54810000 1 # 186: Au
 10.07713400 10.88660600 31.54810000 1 # 187: Au
 12.96213400 10.88660600 31.54810000 1 # 188: Au
 15.84713400 10.88660600 31.54810000 1 # 189: Au
 18.73213400 10.88660600 31.54810000 1 # 190: Au
 -0.02026600  1.72550600 33.90370000 1 # 191: Au
  2.86473400  1.72550600 33.90370000 1 # 192: Au
  5.74963400  1.72550600 33.90370000 1 # 193: Au
  8.63463400  1.72550600 33.90370000 1 # 194: Au
 11.51963400  1.72550600 33.90370000 1 # 195: Au
  1.42223400  4.22400600 33.90370000 1 # 196: Au
  4.30723400  4.22400600 33.90370000 1 # 197: Au
  7.19213400  4.22400600 33.90370000 1 # 198: Au
 10.07713400  4.22400600 33.90370000 1 # 199: Au
 12.96213400  4.22400600 33.90370000 1 # 200: Au
  2.86473400  6.72250600 33.90370000 1 # 201: Au
  5.74963400  6.72250600 33.90370000 1 # 202: Au
  8.63463400  6.72250600 33.90370000 1 # 203: Au
 11.51963400  6.72250600 33.90370000 1 # 204: Au
 14.40463400  6.72250600 33.90370000 1 # 205: Au
  4.30723400  9.22100600 33.90370000 1 # 206: Au
  7.19213400  9.22100600 33.90370000 1 # 207: Au
 10.07713400  9.22100600 33.90370000 1 # 208: Au
 12.96213400  9.22100600 33.90370000 1 # 209: Au
 15.84713400  9.22100600 33.90370000 1 # 210: Au
  5.74963400 11.71950600 33.90370000 1 # 211: Au
  8.63463400 11.71950600 33.90370000 1 # 212: Au
 11.51963400 11.71950600 33.90370000 1 # 213: Au
 14.40463400 11.71950600 33.90370000 1 # 214: Au
 17.28963400 11.71950600 33.90370000 1 # 215: Au
 -0.02026600  0.05990600 36.25920000 1 # 216: Au
  2.86473400  0.05990600 36.25920000 1 # 217: Au
  5.74963400  0.05990600 36.25920000 1 # 218: Au
  8.63463400  0.05990600 36.25920000 1 # 219: Au
 11.51963400  0.05990600 36.25920000 1 # 220: Au
  1.42223400  2.55840600 36.25920000 1 # 221: Au
  4.30723400  2.55840600 36.25920000 1 # 222: Au
  7.19213400  2.55840600 36.25920000 1 # 223: Au
 10.07713400  2.55840600 36.25920000 1 # 224: Au
 12.96213400  2.55840600 36.25920000 1 # 225: Au
  2.86473400  5.05680600 36.25920000 1 # 226: Au
  5.74963400  5.05680600 36.25920000 1 # 227: Au
  8.63463400  5.05680600 36.25920000 1 # 228: Au
 11.51963400  5.05680600 36.25920000 1 # 229: Au
 14.40463400  5.05680600 36.25920000 1 # 230: Au
  4.30723400  7.55530600 36.25920000 1 # 231: Au
  7.19213400  7.55530600 36.25920000 1 # 232: Au
 10.07713400  7.55530600 36.25920000 1 # 233: Au
 12.96213400  7.55530600 36.25920000 1 # 234: Au
 15.84713400  7.55530600 36.25920000 1 # 235: Au
  5.74963400 10.05380600 36.25920000 1 # 236: Au
  8.63463400 10.05380600 36.25920000 1 # 237: Au
 11.51963400 10.05380600 36.25920000 1 # 238: Au
 14.40463400 10.05380600 36.25920000 1 # 239: Au
 17.28963400 10.05380600 36.25920000 1 # 240: Au
%endblock AtomicCoordinatesAndAtomicSpecies

NumberOfSpecies 6
%block ChemicalSpeciesLabel
 1 79 Au
 2 7 N
 3 6 C
 4 8 O
 5 16 S
 6 1 H
%endblock ChemicalSpeciesLabel
BandLinesScale ReciprocalLatticeVectors
# GENERAL VARIABLES
#--Exchange-correlation functionals
XC.functional GGA # LDA or GGA
XC.authors PBE # CA = PZ, PW92, PBE
MeshCutoff 300.0 Ry
# SPIN OPTIONS
#SpinPolarized F # T, F
#FixSpin F
#TotalSpin 0.0
#NonCollinearSpin F # T, F
# SCF OPTIONS
ElectronicTemperature 300 K
NetCharge -1
MaxSCFIterations 30000
DM.MixingWeight 0.02
DM.NumberPulay 4 # Pulay convergency accelerator
#DM.MixSCF1 T
#DM.MixH T
#DM.PulayOnFile F # Store in memory (F) or in files (T)
DM.Tolerance 1.0D-6
DM.UseSaveDM T
WriteCoorXmol                   .true.
WriteMDXmol                     .true.

# TRANSPORT VARIABLES
SolutionMethod transiesta

TS.Elecs.Neglect.Principal .true.
TS.Voltage  0.000 eV

%block TS.ChemPots
  Left
  Right
%endblock TS.ChemPots

%block TS.ChemPot.Left
  mu V/2
  contour.eq
    begin
      c-Left
      t-Left
    end
%endblock TS.ChemPot.Left
%block TS.ChemPot.Right
  mu -V/2
  contour.eq
    begin
      c-Right
      t-Right
    end
%endblock TS.ChemPot.Right

TS.Elecs.Bulk true
TS.Elecs.DM.Update cross-terms
TS.Elecs.GF.ReUse true
%block TS.Elecs
  Left
  Right
%endblock TS.Elecs

%block TS.Elec.Left
  HS elec.TSHS
  chem-pot Left
  semi-inf-dir -a3
  elec-pos begin 1
%endblock TS.Elec.Left

%block TS.Elec.Right
  HS elec.TSHS
  chem-pot Right
  semi-inf-dir +a3
  elec-pos end -1
%endblock TS.Elec.Right

TS.Contours.Eq.Pole    2.50000 eV
%block TS.Contour.c-Left
  part circle
   from  -20.00000 Ry + V/2 to -10. kT + V/2
    points 25
     method g-legendre
%endblock TS.Contour.c-Left
%block TS.Contour.t-Left
  part tail
   from prev to inf
    points 10
     method g-fermi
%endblock TS.Contour.t-Left
%block TS.Contour.c-Right
  part circle
   from  -20.00000 Ry - V/2 to -10. kT - V/2
    points 25
     method g-legendre
%endblock TS.Contour.c-Right
%block TS.Contour.t-Right
  part tail
   from prev to inf
    points 10
     method g-fermi
%endblock TS.Contour.t-Right

TS.Elecs.Eta    0.0136058000 eV
%block TS.Contours.nEq
  neq
%endblock TS.Contours.nEq
%block TS.Contour.nEq.neq
  part line
   from -|V|/2 - 5 kT to |V|/2 + 5 kT
    delta    0.00100 eV
     method mid-rule
%endblock TS.Contour.nEq.neq



# TBtrans options

TBT.Current.Orb .true.
TBT.Elecs.Eta    0.0001 eV

%block TBT.Contours
  neq
%endblock TBT.Contours

%block TBT.Contour.neq
  part line
   from   -3.000 eV to    3.000 eV
    delta    0.0050 eV
     method mid-rule
%endblock TBT.Contour.neq

